c description: Random 3-CNF over 18 variables and 77 clauses
c generator: CNFgen (0.9.2)
c copyright: (C) 2012-2022 Massimo Lauria <massimo.lauria@uniroma1.it>
c url: https://massimolauria.net/cnfgen
c command line: cnfgen --output CNF_4.28/18_bit_77_707.cnf randkcnf 3 18 77
c
p cnf 18 77
3 -16 -17 0
4 -16 18 0
-2 6 -7 0
-1 15 18 0
10 -14 17 0
1 -5 18 0
-1 -14 -15 0
-1 -7 -8 0
-6 -9 16 0
1 -10 15 0
-5 10 14 0
3 12 -15 0
9 13 16 0
11 -16 18 0
-1 -2 14 0
-3 6 -9 0
-6 -7 -12 0
-3 6 -11 0
1 11 14 0
3 5 11 0
4 -8 14 0
8 13 15 0
2 6 16 0
-9 -14 17 0
-1 7 -15 0
-9 -16 -17 0
2 6 9 0
11 13 18 0
-2 -9 17 0
1 -4 18 0
5 7 12 0
15 16 -18 0
2 -5 -6 0
1 -5 -18 0
-7 12 16 0
5 12 -16 0
5 -9 16 0
4 -10 16 0
-8 16 -17 0
5 -7 -11 0
-2 5 10 0
-3 6 -13 0
-1 3 -18 0
-5 -11 -16 0
2 7 -12 0
-2 5 -9 0
-1 3 10 0
3 -6 18 0
-6 -10 14 0
7 -8 -14 0
-1 -7 16 0
8 -13 -14 0
-8 -11 14 0
1 -8 13 0
4 5 -18 0
-4 -5 -13 0
-9 12 15 0
3 -4 17 0
-11 12 -16 0
-4 5 -8 0
-3 17 18 0
-4 5 12 0
3 8 13 0
9 12 -14 0
-5 -11 16 0
-9 -12 17 0
5 7 -15 0
2 -7 18 0
-6 8 -14 0
4 -5 7 0
1 -3 -5 0
-2 8 18 0
-3 -13 -14 0
2 -7 10 0
9 11 -15 0
-1 4 -14 0
6 10 16 0
